
--- Job Ex 3.1 - Dati.gms Start 12/09/22 12:38:52 40.3.0 f227c22a DEX-DEG x86 64bit/Mac OS X
--- Applying:
    /Library/Frameworks/GAMS.framework/Versions/40/Resources/gmsprmun.txt
    /Users/marcovinciguerra/Library/Preferences/GAMS/gamsconfig.yaml
--- GAMS Parameters defined
    Input "/Users/marcovinciguerra/Github/Gams/Ex 3.1 - Dati.gms"
    PageSize 0
    ScrDir /Users/marcovinciguerra/Github/Gams/225a/
    SysDir /Library/Frameworks/GAMS.framework/Versions/40/Resources/
    LogOption 3
    ErrMsg 1
    ErrorLog 99
    IDE 1
    LstTitleLeftAligned 1
Licensee: GAMS Demo license for marco vinciguerra        G220927|0002CO-GEN
          unibg, Italy                                             DL074718
          /Users/marcovinciguerra/Library/Application Support/GAMS/gamslice.txt
          mvincig11@gmail.com, marco vinciguerra                           
          Demo license for demonstration and instructional purposes only
Processor information: 1 socket(s), 8 core(s), and 8 thread(s) available
GAMS 40.3.0   Copyright (C) 1987-2022 GAMS Development. All rights reserved
--- Starting compilation
--- Ex 3.1 - Dati.gms(95) 3 Mb
--- Starting execution: elapsed 0:00:00.005
--- Ex 3.1 - Dati.gms(50) 4 Mb
--- Generating LP model Pollution
--- Ex 3.1 - Dati.gms(65) 4 Mb
---   4 rows  7 columns  25 non-zeroes
--- Range statistics (absolute non-zero finite values)
--- RHS       [min, max] : [ 6.000E+01, 1.500E+02] - Zero values observed as well
--- Bound     [min, max] : [ 1.000E+00, 1.000E+00] - Zero values observed as well
--- Matrix    [min, max] : [ 1.000E+00, 5.600E+01]
--- Executing CPLEX (Solvelink=2): elapsed 0:00:00.011

IBM ILOG CPLEX   40.3.0 f227c22a Sep 16, 2022          DEG x86 64bit/Mac OS X 

--- *** This solver runs with a demo license. No commercial use.
--- GMO setup time: 0.00s
--- GMO memory 0.50 Mb (peak 0.50 Mb)
--- Dictionary memory 0.00 Mb
--- Cplex 22.1.0.0 link memory 0.00 Mb (peak 0.00 Mb)
--- Starting Cplex

Version identifier: 22.1.0.0 | 2022-03-09 | 1a383f8ce
CPXPARAM_Advance                                 0
CPXPARAM_Simplex_Display                         2
CPXPARAM_Threads                                 1
CPXPARAM_MIP_Display                             4
CPXPARAM_MIP_Pool_Capacity                       0
CPXPARAM_MIP_Tolerances_AbsMIPGap                0
Tried aggregator 1 time.
LP Presolve eliminated 0 rows and 1 columns.
Reduced LP has 3 rows, 6 columns, and 18 nonzeros.
Presolve time = 0.00 sec. (0.00 ticks)

Iteration      Dual Objective            In Variable           Out Variable
     1              30.380952   x(fornaci,ciminiere)           ossidi slack
     2              31.320946    x(altiforni,filtri)      particolato slack
     3              33.970716  x(altiforni,additivi)             idro slack

--- LP status (1): optimal.
--- Cplex Time: 0.00sec (det. 0.01 ticks)


Optimal solution found
Objective:           33.970716

--- Reading solution for model Pollution
--- Executing after solve: elapsed 0:00:00.045
--- Ex 3.1 - Dati.gms(88) 4 Mb
--- Generating MIP model Pollution_b
--- Ex 3.1 - Dati.gms(90) 4 Mb
---   4 rows  8 columns  29 non-zeroes
---   1 discrete-columns
--- Range statistics (absolute non-zero finite values)
--- RHS       [min, max] : [ 6.000E+01, 1.500E+02] - Zero values observed as well
--- Bound     [min, max] : [ 1.000E+00, 1.000E+00] - Zero values observed as well
--- Matrix    [min, max] : [ 1.000E+00, 5.600E+01]
--- Executing CPLEX (Solvelink=2): elapsed 0:00:00.048

IBM ILOG CPLEX   40.3.0 f227c22a Sep 16, 2022          DEG x86 64bit/Mac OS X 

--- *** This solver runs with a demo license. No commercial use.
--- GMO setup time: 0.00s
--- GMO memory 0.50 Mb (peak 0.50 Mb)
--- Dictionary memory 0.00 Mb
--- Cplex 22.1.0.0 link memory 0.00 Mb (peak 0.00 Mb)
--- Starting Cplex

Version identifier: 22.1.0.0 | 2022-03-09 | 1a383f8ce
CPXPARAM_Advance                                 0
CPXPARAM_Simplex_Display                         2
CPXPARAM_Threads                                 1
CPXPARAM_MIP_Display                             4
CPXPARAM_MIP_Pool_Capacity                       0
CPXPARAM_MIP_Tolerances_AbsMIPGap                0
CPXPARAM_MIP_Tolerances_MIPGap                   0
Generic callback                                 0x50
Tried aggregator 1 time.
MIP Presolve eliminated 0 rows and 1 columns.
Reduced MIP has 3 rows, 7 columns, and 21 nonzeros.
Reduced MIP has 0 binaries, 1 generals, 0 SOSs, and 0 indicators.
Presolve time = 0.00 sec. (0.01 ticks)
Found incumbent of value 53.000000 after 0.01 sec. (0.01 ticks)
Tried aggregator 1 time.
Detecting symmetries...
Reduced MIP has 3 rows, 7 columns, and 21 nonzeros.
Reduced MIP has 0 binaries, 1 generals, 0 SOSs, and 0 indicators.
Presolve time = 0.00 sec. (0.01 ticks)
MIP emphasis: balance optimality and feasibility.
MIP search method: dynamic search.
Parallel mode: none, using 1 thread.
Tried aggregator 1 time.
No LP presolve or aggregator reductions.
Presolve time = 0.00 sec. (0.00 ticks)

Iteration      Dual Objective            In Variable           Out Variable
     1              30.380952   x(fornaci,ciminiere)         ossidi_b slack
     2              31.320946    x(altiforni,filtri)    particolato_b slack
     3              33.766556                   teta           idro_b slack
     4              33.775510      x(fornaci,filtri)    x(altiforni,filtri)
     5              33.786622    x(fornaci,additivi)   x(fornaci,ciminiere)
Root relaxation solution time = 0.00 sec. (0.01 ticks)

        Nodes                                         Cuts/
   Node  Left     Objective  IInf  Best Integer    Best Bound    ItCnt     Gap

*     0+    0                           53.0000      -17.5000           133.02%
Found incumbent of value 53.000000 after 0.01 sec. (0.03 ticks)
      0     0       33.7866     1       53.0000       33.7866        5   36.25%
*     0+    0                           34.7614       33.7866             2.80%
Found incumbent of value 34.761393 after 0.01 sec. (0.04 ticks)
*     0+    0                           33.7956       33.7866             0.03%
Found incumbent of value 33.795644 after 0.01 sec. (0.04 ticks)
      0     0        cutoff             33.7956                      7    0.00%
Elapsed time = 0.02 sec. (0.06 ticks, tree = 0.01 MB)

Root node processing (before b&c):
  Real time             =    0.02 sec. (0.06 ticks)
Sequential b&c:
  Real time             =    0.00 sec. (0.00 ticks)
                          ------------
Total (root+branch&cut) =    0.02 sec. (0.06 ticks)

--- MIP status (101): integer optimal solution.
--- Cplex Time: 0.02sec (det. 0.06 ticks)

--- Fixing integer variables and solving final LP...

Version identifier: 22.1.0.0 | 2022-03-09 | 1a383f8ce
CPXPARAM_Advance                                 2
CPXPARAM_Simplex_Display                         2
CPXPARAM_Threads                                 1
CPXPARAM_MIP_Display                             4
CPXPARAM_MIP_Pool_Capacity                       0
CPXPARAM_MIP_Tolerances_AbsMIPGap                0
CPXPARAM_MIP_Tolerances_MIPGap                   0
Tried aggregator 1 time.
LP Presolve eliminated 0 rows and 2 columns.
Reduced LP has 3 rows, 6 columns, and 18 nonzeros.
Presolve time = 0.00 sec. (0.00 ticks)

Iteration      Dual Objective            In Variable           Out Variable
     1              31.225806      x(fornaci,filtri)         ossidi_b slack
     2              31.918004   x(fornaci,ciminiere)    particolato_b slack
     3              33.037162    x(altiforni,filtri)      x(fornaci,filtri)
     4              33.771765      x(fornaci,filtri)           idro_b slack
     5              33.795644  x(altiforni,additivi)    x(altiforni,filtri)

--- Fixed MIP status (1): optimal.
--- Cplex Time: 0.00sec (det. 0.01 ticks)


Proven optimal solution
MIP Solution:           33.795644    (7 iterations, 0 nodes)
Final Solve:            33.795644    (5 iterations)

Best possible:          33.795644
Absolute gap:            0.000000
Relative gap:            0.000000

--- Reading solution for model Pollution_b
--- Executing after solve: elapsed 0:00:00.098
--- Ex 3.1 - Dati.gms(95) 4 Mb
*** Status: Normal completion
--- Job Ex 3.1 - Dati.gms Stop 12/09/22 12:38:52 elapsed 0:00:00.099
